111111111111111111111111111
101000000000000000100000101
101110111111111110101011101
100010101010000010001010001
101111101011111010101111101
101000100010100010100000101
101011101110111011101111101
101000101010000010001010001
101110101011111011101011101
100010100000000010000000101
111010111111101111101011101
100000101000000010001010001
101110101111101111101110111
101000000000000010100000001
111010101011101110101110101
100010101010000000100010101
111011111111101010101110111
100010100000001010000010001
111110111110111110101010101
100000000000001000101010101
111111101110101010111111101
101000101000101010001000101
101011111110111110101010111
101010001010001000100010101
101010111011111111101111101
100000000000000000000000001
111111111111111111111111111
